c "905778.clq"
p edge 120 464
e 1 5
e 1 6
e 1 7
e 1 8
e 1 9
e 1 14
e 1 18
e 1 19
e 1 26
e 1 28
e 1 29
e 1 33
e 1 38
e 1 45
e 1 66
e 1 69
e 1 70
e 1 72
e 1 94
e 1 95
e 1 104
e 1 109
e 1 113
e 2 5
e 2 6
e 2 8
e 2 17
e 2 22
e 2 35
e 2 54
e 2 58
e 2 64
e 2 72
e 2 81
e 2 93
e 2 102
e 3 5
e 3 6
e 3 7
e 3 10
e 3 11
e 3 12
e 3 15
e 3 20
e 3 21
e 3 23
e 3 25
e 3 29
e 3 31
e 3 34
e 3 36
e 3 61
e 3 62
e 3 63
e 3 74
e 3 86
e 3 87
e 3 100
e 3 112
e 4 5
e 4 12
e 5 6
e 5 7
e 5 8
e 5 9
e 5 12
e 5 15
e 5 18
e 5 19
e 5 20
e 5 25
e 5 26
e 5 27
e 5 30
e 5 47
e 5 67
e 5 76
e 5 82
e 5 89
e 5 95
e 5 112
e 6 7
e 6 8
e 6 9
e 6 11
e 6 14
e 6 16
e 6 17
e 6 21
e 6 23
e 6 24
e 6 31
e 6 44
e 6 45
e 6 56
e 6 71
e 6 73
e 6 77
e 6 78
e 6 83
e 6 86
e 6 105
e 6 115
e 7 10
e 7 11
e 7 13
e 7 14
e 7 15
e 7 16
e 7 27
e 7 28
e 7 33
e 7 36
e 7 42
e 7 46
e 7 51
e 7 63
e 7 69
e 7 70
e 7 78
e 7 79
e 7 98
e 7 113
e 7 114
e 8 9
e 8 10
e 8 11
e 8 12
e 8 13
e 8 14
e 8 16
e 8 17
e 8 19
e 8 22
e 8 27
e 8 30
e 8 31
e 8 35
e 8 37
e 8 38
e 8 42
e 8 43
e 8 45
e 8 50
e 8 58
e 8 59
e 8 62
e 8 64
e 8 65
e 8 66
e 8 68
e 8 74
e 8 84
e 8 85
e 8 99
e 8 106
e 8 110
e 9 10
e 9 13
e 9 15
e 9 16
e 9 23
e 9 24
e 9 28
e 9 39
e 9 48
e 9 51
e 9 62
e 9 69
e 9 72
e 9 96
e 9 109
e 10 18
e 10 20
e 10 27
e 10 30
e 10 36
e 10 60
e 10 62
e 10 75
e 10 106
e 11 38
e 11 49
e 11 50
e 11 52
e 11 53
e 11 55
e 11 56
e 11 83
e 11 87
e 11 88
e 11 106
e 11 116
e 12 13
e 12 18
e 12 21
e 12 22
e 12 23
e 12 24
e 12 26
e 12 29
e 12 31
e 12 33
e 12 34
e 12 37
e 12 39
e 12 42
e 12 44
e 12 45
e 12 46
e 12 47
e 12 51
e 12 52
e 12 53
e 12 65
e 12 82
e 12 91
e 12 94
e 12 107
e 12 111
e 12 116
e 12 117
e 12 119
e 13 17
e 13 32
e 13 35
e 13 40
e 13 104
e 13 106
e 14 46
e 14 92
e 15 34
e 15 41
e 15 44
e 15 46
e 15 77
e 15 99
e 16 20
e 16 25
e 16 30
e 16 32
e 16 79
e 16 81
e 16 85
e 16 103
e 16 114
e 17 19
e 17 22
e 17 28
e 17 32
e 17 49
e 17 55
e 17 56
e 17 60
e 17 61
e 17 69
e 17 70
e 17 78
e 17 79
e 17 91
e 17 108
e 17 112
e 17 119
e 18 21
e 18 67
e 18 84
e 18 100
e 19 26
e 19 32
e 19 48
e 19 50
e 19 72
e 19 79
e 19 89
e 19 91
e 19 100
e 19 105
e 20 33
e 20 80
e 21 24
e 21 25
e 21 47
e 21 48
e 21 53
e 21 71
e 21 93
e 21 102
e 21 118
e 22 36
e 22 52
e 22 60
e 22 93
e 22 120
e 23 41
e 23 53
e 23 54
e 23 95
e 24 29
e 24 37
e 24 39
e 24 41
e 24 75
e 24 84
e 24 86
e 24 87
e 24 92
e 24 94
e 25 38
e 25 40
e 25 67
e 25 76
e 25 91
e 25 110
e 26 37
e 26 67
e 26 68
e 26 80
e 26 82
e 26 103
e 26 116
e 27 35
e 27 39
e 27 40
e 27 44
e 27 48
e 27 57
e 27 63
e 27 64
e 27 66
e 27 74
e 27 76
e 27 99
e 28 49
e 28 57
e 28 118
e 29 41
e 29 61
e 29 77
e 29 88
e 29 97
e 29 113
e 29 117
e 30 78
e 30 83
e 31 34
e 31 43
e 31 49
e 31 59
e 31 98
e 32 42
e 32 66
e 32 71
e 32 101
e 32 119
e 32 120
e 34 55
e 34 90
e 34 97
e 34 115
e 35 43
e 35 50
e 35 51
e 36 55
e 37 68
e 38 43
e 38 59
e 38 60
e 38 68
e 38 75
e 38 110
e 38 111
e 39 40
e 39 86
e 41 47
e 41 65
e 42 101
e 43 54
e 44 58
e 46 64
e 47 57
e 47 73
e 47 81
e 47 90
e 47 95
e 47 105
e 47 115
e 48 58
e 48 87
e 48 107
e 49 57
e 50 110
e 51 52
e 51 103
e 51 118
e 52 54
e 52 56
e 52 61
e 53 59
e 53 77
e 54 73
e 54 99
e 55 117
e 57 90
e 57 108
e 58 63
e 58 102
e 59 84
e 59 104
e 59 107
e 60 105
e 61 82
e 61 85
e 61 97
e 61 114
e 61 118
e 62 75
e 63 71
e 63 73
e 63 98
e 64 65
e 64 80
e 64 89
e 64 92
e 64 111
e 64 116
e 65 70
e 65 85
e 68 90
e 69 96
e 71 88
e 71 89
e 71 120
e 73 74
e 73 80
e 73 81
e 75 76
e 76 83
e 76 98
e 77 92
e 77 108
e 79 107
e 83 94
e 83 102
e 84 97
e 85 93
e 85 114
e 86 88
e 88 101
e 92 96
e 93 96
e 93 101
e 93 104
e 93 108
e 97 100
e 98 109
e 100 109
e 100 115
e 100 117
e 101 103
e 102 111
e 108 120
e 109 119
e 110 112
e 111 113
